project/plat/plat10.dat.lp
\* Problem: robots *\

Minimize
 obj: + 0 x_1,1 + 21 x_1,2 + 61 x_1,4 + 41 x_1,5 + 36 x_1,6 + 26 x_1,7
 + 92 x_1,8 + 4 x_1,9 + 17 x_1,10 + 21 x_2,1 + 0 x_2,2 + 62 x_2,3
 + 62 x_2,4 + 20 x_2,5 + 24 x_2,6 + 60 x_2,7 + 87 x_2,8 + 40 x_2,9
 + 15 x_2,10 + 62 x_3,2 + 0 x_3,3 + 63 x_3,4 + 21 x_3,5 + 62 x_3,6
 + 53 x_3,7 + 38 x_3,8 + 47 x_3,9 + 92 x_3,10 + 61 x_4,1 + 62 x_4,2
 + 63 x_4,3 + 0 x_4,4 + 64 x_4,5 + 6 x_4,6 + 45 x_4,7 + 90 x_4,8
 + 51 x_4,9 + x_4,10 + 41 x_5,1 + 20 x_5,2 + 21 x_5,3 + 64 x_5,4
 + 0 x_5,5 + 54 x_5,6 + 50 x_5,7 + 5 x_5,8 + 41 x_5,9 + 90 x_5,10
 + 36 x_6,1 + 24 x_6,2 + 62 x_6,3 + 6 x_6,4 + 54 x_6,5 + 0 x_6,6
 + 33 x_6,7 + 50 x_6,8 + 78 x_6,9 + 32 x_6,10 + 26 x_7,1 + 60 x_7,2
 + 53 x_7,3 + 45 x_7,4 + 50 x_7,5 + 33 x_7,6 + 0 x_7,7 + 45 x_7,8
 + 94 x_7,9 + 68 x_7,10 + 92 x_8,1 + 87 x_8,2 + 38 x_8,3 + 90 x_8,4
 + 5 x_8,5 + 50 x_8,6 + 45 x_8,7 + 0 x_8,8 + 53 x_8,9 + 75 x_8,10
 + 4 x_9,1 + 40 x_9,2 + 47 x_9,3 + 51 x_9,4 + 41 x_9,5 + 78 x_9,6
 + 94 x_9,7 + 53 x_9,8 + 0 x_9,9 + 63 x_9,10 + 17 x_10,1 + 15 x_10,2
 + 92 x_10,3 + x_10,4 + 90 x_10,5 + 32 x_10,6 + 68 x_10,7 + 75 x_10,8
 + 63 x_10,9 + 0 x_10,10

Subject To
 (1'): + x_1,10 + x_1,9 + x_1,8 + x_1,7 + x_1,6 + x_1,5 + x_1,4 + x_1,3
 + x_1,2 = 1
 (1'): + x_2,10 + x_2,9 + x_2,8 + x_2,7 + x_2,6 + x_2,5 + x_2,4 + x_2,3
 + x_2,1 = 1
 (1'): + x_3,10 + x_3,9 + x_3,8 + x_3,7 + x_3,6 + x_3,5 + x_3,4 + x_3,2
 + x_3,1 = 1
 (1'): + x_4,10 + x_4,9 + x_4,8 + x_4,7 + x_4,6 + x_4,5 + x_4,3 + x_4,2
 + x_4,1 = 1
 (1'): + x_5,10 + x_5,9 + x_5,8 + x_5,7 + x_5,6 + x_5,4 + x_5,3 + x_5,2
 + x_5,1 = 1
 (1'): + x_6,10 + x_6,9 + x_6,8 + x_6,7 + x_6,5 + x_6,4 + x_6,3 + x_6,2
 + x_6,1 = 1
 (1'): + x_7,10 + x_7,9 + x_7,8 + x_7,6 + x_7,5 + x_7,4 + x_7,3 + x_7,2
 + x_7,1 = 1
 (1'): + x_8,10 + x_8,9 + x_8,7 + x_8,6 + x_8,5 + x_8,4 + x_8,3 + x_8,2
 + x_8,1 = 1
 (1'): + x_9,10 + x_9,8 + x_9,7 + x_9,6 + x_9,5 + x_9,4 + x_9,3 + x_9,2
 + x_9,1 = 1
 (1'): + x_10,9 + x_10,8 + x_10,7 + x_10,6 + x_10,5 + x_10,4 + x_10,3
 + x_10,2 + x_10,1 = 1
 (2'): + x_10,1 + x_9,1 + x_8,1 + x_7,1 + x_6,1 + x_5,1 + x_4,1 + x_3,1
 + x_2,1 = 1
 (2'): + x_10,2 + x_9,2 + x_8,2 + x_7,2 + x_6,2 + x_5,2 + x_4,2 + x_3,2
 + x_1,2 = 1
 (2'): + x_10,3 + x_9,3 + x_8,3 + x_7,3 + x_6,3 + x_5,3 + x_4,3 + x_2,3
 + x_1,3 = 1
 (2'): + x_10,4 + x_9,4 + x_8,4 + x_7,4 + x_6,4 + x_5,4 + x_3,4 + x_2,4
 + x_1,4 = 1
 (2'): + x_10,5 + x_9,5 + x_8,5 + x_7,5 + x_6,5 + x_4,5 + x_3,5 + x_2,5
 + x_1,5 = 1
 (2'): + x_10,6 + x_9,6 + x_8,6 + x_7,6 + x_5,6 + x_4,6 + x_3,6 + x_2,6
 + x_1,6 = 1
 (2'): + x_10,7 + x_9,7 + x_8,7 + x_6,7 + x_5,7 + x_4,7 + x_3,7 + x_2,7
 + x_1,7 = 1
 (2'): + x_10,8 + x_9,8 + x_7,8 + x_6,8 + x_5,8 + x_4,8 + x_3,8 + x_2,8
 + x_1,8 = 1
 (2'): + x_10,9 + x_8,9 + x_7,9 + x_6,9 + x_5,9 + x_4,9 + x_3,9 + x_2,9
 + x_1,9 = 1
 (2'): + x_9,10 + x_8,10 + x_7,10 + x_6,10 + x_5,10 + x_4,10 + x_3,10
 + x_2,10 + x_1,10 = 1
 (3): + x_1,3 + x_3,1 <= 1
 (3): + x_5,8 + x_8,5 <= 1

Bounds
 0 <= x_1,1 <= 1
 0 <= x_1,2 <= 1
 0 <= x_1,3 <= 1
 0 <= x_1,4 <= 1
 0 <= x_1,5 <= 1
 0 <= x_1,6 <= 1
 0 <= x_1,7 <= 1
 0 <= x_1,8 <= 1
 0 <= x_1,9 <= 1
 0 <= x_1,10 <= 1
 0 <= x_2,1 <= 1
 0 <= x_2,2 <= 1
 0 <= x_2,3 <= 1
 0 <= x_2,4 <= 1
 0 <= x_2,5 <= 1
 0 <= x_2,6 <= 1
 0 <= x_2,7 <= 1
 0 <= x_2,8 <= 1
 0 <= x_2,9 <= 1
 0 <= x_2,10 <= 1
 0 <= x_3,1 <= 1
 0 <= x_3,2 <= 1
 0 <= x_3,3 <= 1
 0 <= x_3,4 <= 1
 0 <= x_3,5 <= 1
 0 <= x_3,6 <= 1
 0 <= x_3,7 <= 1
 0 <= x_3,8 <= 1
 0 <= x_3,9 <= 1
 0 <= x_3,10 <= 1
 0 <= x_4,1 <= 1
 0 <= x_4,2 <= 1
 0 <= x_4,3 <= 1
 0 <= x_4,4 <= 1
 0 <= x_4,5 <= 1
 0 <= x_4,6 <= 1
 0 <= x_4,7 <= 1
 0 <= x_4,8 <= 1
 0 <= x_4,9 <= 1
 0 <= x_4,10 <= 1
 0 <= x_5,1 <= 1
 0 <= x_5,2 <= 1
 0 <= x_5,3 <= 1
 0 <= x_5,4 <= 1
 0 <= x_5,5 <= 1
 0 <= x_5,6 <= 1
 0 <= x_5,7 <= 1
 0 <= x_5,8 <= 1
 0 <= x_5,9 <= 1
 0 <= x_5,10 <= 1
 0 <= x_6,1 <= 1
 0 <= x_6,2 <= 1
 0 <= x_6,3 <= 1
 0 <= x_6,4 <= 1
 0 <= x_6,5 <= 1
 0 <= x_6,6 <= 1
 0 <= x_6,7 <= 1
 0 <= x_6,8 <= 1
 0 <= x_6,9 <= 1
 0 <= x_6,10 <= 1
 0 <= x_7,1 <= 1
 0 <= x_7,2 <= 1
 0 <= x_7,3 <= 1
 0 <= x_7,4 <= 1
 0 <= x_7,5 <= 1
 0 <= x_7,6 <= 1
 0 <= x_7,7 <= 1
 0 <= x_7,8 <= 1
 0 <= x_7,9 <= 1
 0 <= x_7,10 <= 1
 0 <= x_8,1 <= 1
 0 <= x_8,2 <= 1
 0 <= x_8,3 <= 1
 0 <= x_8,4 <= 1
 0 <= x_8,5 <= 1
 0 <= x_8,6 <= 1
 0 <= x_8,7 <= 1
 0 <= x_8,8 <= 1
 0 <= x_8,9 <= 1
 0 <= x_8,10 <= 1
 0 <= x_9,1 <= 1
 0 <= x_9,2 <= 1
 0 <= x_9,3 <= 1
 0 <= x_9,4 <= 1
 0 <= x_9,5 <= 1
 0 <= x_9,6 <= 1
 0 <= x_9,7 <= 1
 0 <= x_9,8 <= 1
 0 <= x_9,9 <= 1
 0 <= x_9,10 <= 1
 0 <= x_10,1 <= 1
 0 <= x_10,2 <= 1
 0 <= x_10,3 <= 1
 0 <= x_10,4 <= 1
 0 <= x_10,5 <= 1
 0 <= x_10,6 <= 1
 0 <= x_10,7 <= 1
 0 <= x_10,8 <= 1
 0 <= x_10,9 <= 1
 0 <= x_10,10 <= 1

Generals
 x_1,1
 x_1,2
 x_1,3
 x_1,4
 x_1,5
 x_1,6
 x_1,7
 x_1,8
 x_1,9
 x_1,10
 x_2,1
 x_2,2
 x_2,3
 x_2,4
 x_2,5
 x_2,6
 x_2,7
 x_2,8
 x_2,9
 x_2,10
 x_3,1
 x_3,2
 x_3,3
 x_3,4
 x_3,5
 x_3,6
 x_3,7
 x_3,8
 x_3,9
 x_3,10
 x_4,1
 x_4,2
 x_4,3
 x_4,4
 x_4,5
 x_4,6
 x_4,7
 x_4,8
 x_4,9
 x_4,10
 x_5,1
 x_5,2
 x_5,3
 x_5,4
 x_5,5
 x_5,6
 x_5,7
 x_5,8
 x_5,9
 x_5,10
 x_6,1
 x_6,2
 x_6,3
 x_6,4
 x_6,5
 x_6,6
 x_6,7
 x_6,8
 x_6,9
 x_6,10
 x_7,1
 x_7,2
 x_7,3
 x_7,4
 x_7,5
 x_7,6
 x_7,7
 x_7,8
 x_7,9
 x_7,10
 x_8,1
 x_8,2
 x_8,3
 x_8,4
 x_8,5
 x_8,6
 x_8,7
 x_8,8
 x_8,9
 x_8,10
 x_9,1
 x_9,2
 x_9,3
 x_9,4
 x_9,5
 x_9,6
 x_9,7
 x_9,8
 x_9,9
 x_9,10
 x_10,1
 x_10,2
 x_10,3
 x_10,4
 x_10,5
 x_10,6
 x_10,7
 x_10,8
 x_10,9
 x_10,10

End
